letting initialStacks = [19, 6, 45, 17, 48, 43, 50, 20, 16, 46, 34, 22, 26, 38, 10, 27, 33, 15, 49, 8, 3, 14, 12, 18, 44, 4, 39, 24, 41, 9, 47, 13, 51, 37, 2, 40, 42, 36, 23, 7, 21, 30, 32, 31, 25, 1, 28, 29, 35, 11, 5]
